NAME /Users/henri/Research/solvers/instances/idol-instances/robust/collection/cbp_Subramanyam_et_al_2020/CapBud_N15_3/models/uncertain_technology_matrix/
ROWS
 N  OBJ
 L  capacity
 L  c_1285
 L  c_1286
 L  c_1287
 L  c_1288
 L  c_1289
 L  c_1290
 L  c_1291
 L  c_1292
 L  c_1293
 L  c_1294
 L  c_1295
 L  c_1296
 L  c_1297
 L  c_1298
 L  c_1299
COLUMNS
    MARKER    'MARKER'                 'INTORG'
    x_0        OBJ        -1.12441
    x_0        c_1285     1
    x_0        capacity   0.224882
    x_1        OBJ        -5.28085
    x_1        c_1286     1
    x_1        capacity   1.05617
    x_2        OBJ        -0.509037
    x_2        c_1287     1
    x_2        capacity   0.101807
    x_3        OBJ        -3.02148
    x_3        c_1288     1
    x_3        capacity   0.604295
    x_4        OBJ        -6.67448
    x_4        c_1289     1
    x_4        capacity   1.3349
    x_5        OBJ        -7.49863
    x_5        c_1290     1
    x_5        capacity   1.49973
    x_6        OBJ        -2.67839
    x_6        c_1291     1
    x_6        capacity   0.535679
    x_7        OBJ        -5.40192
    x_7        c_1292     1
    x_7        capacity   1.08038
    x_8        OBJ        -5.23607
    x_8        c_1293     1
    x_8        capacity   1.04721
    x_9        OBJ        -7.31186
    x_9        c_1294     1
    x_9        capacity   1.46237
    x_10       OBJ        -3.89585
    x_10       c_1295     1
    x_10       capacity   0.779169
    x_11       OBJ        -3.26894
    x_11       c_1296     1
    x_11       capacity   0.653788
    x_12       OBJ        -1.19544
    x_12       c_1297     1
    x_12       capacity   0.239087
    x_13       OBJ        -4.40877
    x_13       c_1298     1
    x_13       capacity   0.881755
    x_14       OBJ        -3.20442
    x_14       c_1299     1
    x_14       capacity   0.640884
    y_0        OBJ        -0.899529
    y_0        c_1285     1
    y_0        capacity   0.224882
    y_1        OBJ        -4.22468
    y_1        c_1286     1
    y_1        capacity   1.05617
    y_2        OBJ        -0.407229
    y_2        c_1287     1
    y_2        capacity   0.101807
    y_3        OBJ        -2.41718
    y_3        c_1288     1
    y_3        capacity   0.604295
    y_4        OBJ        -5.33959
    y_4        c_1289     1
    y_4        capacity   1.3349
    y_5        OBJ        -5.9989
    y_5        c_1290     1
    y_5        capacity   1.49973
    y_6        OBJ        -2.14271
    y_6        c_1291     1
    y_6        capacity   0.535679
    y_7        OBJ        -4.32153
    y_7        c_1292     1
    y_7        capacity   1.08038
    y_8        OBJ        -4.18885
    y_8        c_1293     1
    y_8        capacity   1.04721
    y_9        OBJ        -5.84948
    y_9        c_1294     1
    y_9        capacity   1.46237
    y_10       OBJ        -3.11668
    y_10       c_1295     1
    y_10       capacity   0.779169
    y_11       OBJ        -2.61515
    y_11       c_1296     1
    y_11       capacity   0.653788
    y_12       OBJ        -0.956349
    y_12       c_1297     1
    y_12       capacity   0.239087
    y_13       OBJ        -3.52702
    y_13       c_1298     1
    y_13       capacity   0.881755
    y_14       OBJ        -2.56354
    y_14       c_1299     1
    y_14       capacity   0.640884
    MARKER    'MARKER'                 'INTEND'
RHS
    RHS       capacity   30.3553
    RHS       c_1285     1
    RHS       c_1286     1
    RHS       c_1287     1
    RHS       c_1288     1
    RHS       c_1289     1
    RHS       c_1290     1
    RHS       c_1291     1
    RHS       c_1292     1
    RHS       c_1293     1
    RHS       c_1294     1
    RHS       c_1295     1
    RHS       c_1296     1
    RHS       c_1297     1
    RHS       c_1298     1
    RHS       c_1299     1
BOUNDS
 LI BND       x_0        0
 UI BND       x_0        1
 LI BND       x_1        0
 UI BND       x_1        1
 LI BND       x_2        0
 UI BND       x_2        1
 LI BND       x_3        0
 UI BND       x_3        1
 LI BND       x_4        0
 UI BND       x_4        1
 LI BND       x_5        0
 UI BND       x_5        1
 LI BND       x_6        0
 UI BND       x_6        1
 LI BND       x_7        0
 UI BND       x_7        1
 LI BND       x_8        0
 UI BND       x_8        1
 LI BND       x_9        0
 UI BND       x_9        1
 LI BND       x_10       0
 UI BND       x_10       1
 LI BND       x_11       0
 UI BND       x_11       1
 LI BND       x_12       0
 UI BND       x_12       1
 LI BND       x_13       0
 UI BND       x_13       1
 LI BND       x_14       0
 UI BND       x_14       1
 LI BND       y_0        0
 UI BND       y_0        1
 LI BND       y_1        0
 UI BND       y_1        1
 LI BND       y_2        0
 UI BND       y_2        1
 LI BND       y_3        0
 UI BND       y_3        1
 LI BND       y_4        0
 UI BND       y_4        1
 LI BND       y_5        0
 UI BND       y_5        1
 LI BND       y_6        0
 UI BND       y_6        1
 LI BND       y_7        0
 UI BND       y_7        1
 LI BND       y_8        0
 UI BND       y_8        1
 LI BND       y_9        0
 UI BND       y_9        1
 LI BND       y_10       0
 UI BND       y_10       1
 LI BND       y_11       0
 UI BND       y_11       1
 LI BND       y_12       0
 UI BND       y_12       1
 LI BND       y_13       0
 UI BND       y_13       1
 LI BND       y_14       0
 UI BND       y_14       1
ENDATA
